4254
3815
3901
358
2337
10764
24315
6085
20726
6919
5332
613
2655
4451
5194
11982
8993
14543
25090
11641
7508
7186
4233
5727
9749
9289
7048
5882
18936
1835
15430
6865
10608
7697
8718
3327
15958
11225
11579
3458
12870
10082
4892
11803
6455
0
5226
7852
7559
11278
1309
18417
807
13803
3200
6793
669
9014
8885
11200
4063
9003
5471
15056
12376
6336
16549
8850
15013
6008
9131
14004
5860
3575
3868
2580
6859
21439
4525
8303
1592
4331
30526
24316
2065
17186
3701
14512
9299
18878
2677
4409
8210
7713
5261
1083
2075
2884
1566
